n_res = 4;
rc = [ 16, 13, 14, 14 ];
n_tasks = 120;
d = [ 9, 2, 6, 1, 7, 4, 6, 1, 5, 4, 5, 5, 4, 4, 3, 7, 2, 9, 3, 10, 5, 5, 8, 7, 4, 3, 10, 9, 3, 2, 7, 1, 1, 2, 7, 4, 10, 1, 9, 10, 3, 10, 3, 1, 7, 5, 9, 2, 8, 10, 10, 5, 1, 3, 4, 7, 4, 6, 1, 7, 9, 2, 8, 6, 4, 2, 1, 9, 3, 2, 8, 2, 3, 10, 2, 2, 3, 1, 5, 6, 3, 4, 1, 4, 7, 1, 7, 10, 1, 2, 4, 6, 2, 5, 8, 4, 10, 1, 1, 7, 3, 1, 4, 4, 10, 7, 9, 5, 10, 3, 10, 10, 9, 3, 4, 3, 10, 4, 2, 1 ];
rr = [| 0, 1, 1, 0, 3, 0, 3, 0, 8, 7, 0, 7, 5, 6, 10, 7, 0, 0, 0, 2, 10, 9, 10, 0, 0, 0, 8, 0, 0, 0, 0, 1, 0, 9, 7, 0, 6, 10, 0, 3, 2, 0, 10, 0, 10, 0, 7, 7, 4, 2, 0, 4, 5, 0, 9, 0, 0, 4, 7, 0, 0, 0, 0, 8, 0, 0, 10, 0, 0, 0, 4, 2, 0, 0, 7, 0, 8, 10, 0, 0, 4, 0, 3, 0, 2, 8, 7, 0, 5, 8, 0, 3, 5, 0, 1, 8, 8, 7, 0, 0, 0, 3, 7, 2, 1, 8, 0, 0, 0, 10, 7, 8, 0, 3, 0, 0, 0, 10, 0, 0
      | 0, 0, 5, 0, 1, 8, 0, 4, 0, 0, 4, 0, 3, 0, 0, 10, 0, 2, 0, 0, 0, 0, 3, 10, 9, 0, 8, 9, 0, 6, 6, 7, 2, 3, 5, 2, 0, 10, 5, 0, 0, 2, 0, 0, 7, 5, 0, 5, 0, 0, 0, 0, 0, 0, 0, 10, 0, 0, 8, 10, 7, 0, 3, 1, 10, 0, 0, 1, 0, 0, 0, 0, 0, 4, 2, 0, 0, 0, 4, 6, 8, 0, 9, 5, 0, 0, 0, 0, 0, 4, 0, 0, 1, 0, 9, 0, 0, 5, 6, 6, 0, 0, 3, 6, 0, 6, 0, 4, 10, 4, 0, 0, 4, 5, 4, 1, 3, 2, 6, 0
      | 0, 1, 5, 0, 0, 8, 5, 9, 8, 10, 0, 1, 0, 0, 1, 0, 3, 0, 7, 6, 0, 7, 10, 0, 0, 5, 0, 3, 4, 0, 2, 0, 0, 0, 0, 2, 0, 0, 0, 0, 0, 0, 0, 5, 9, 10, 10, 0, 6, 0, 10, 0, 5, 0, 0, 8, 0, 0, 0, 10, 3, 8, 3, 6, 0, 10, 2, 0, 0, 0, 10, 0, 1, 3, 0, 0, 0, 0, 6, 10, 0, 2, 5, 0, 8, 3, 0, 10, 0, 0, 3, 10, 0, 10, 0, 0, 0, 0, 8, 0, 10, 6, 6, 0, 6, 1, 8, 0, 7, 2, 5, 8, 5, 4, 0, 0, 4, 0, 1, 8
      | 1, 0, 0, 7, 8, 6, 0, 0, 0, 0, 0, 0, 6, 0, 2, 0, 7, 4, 1, 10, 4, 0, 0, 0, 10, 0, 0, 0, 0, 0, 6, 7, 4, 3, 3, 0, 6, 0, 9, 10, 0, 0, 9, 0, 0, 8, 0, 5, 0, 7, 0, 0, 0, 3, 0, 0, 10, 0, 8, 8, 6, 0, 0, 4, 0, 4, 0, 0, 4, 5, 3, 5, 0, 0, 0, 9, 9, 0, 0, 0, 3, 0, 0, 0, 10, 7, 2, 0, 1, 0, 4, 6, 3, 0, 0, 6, 0, 0, 10, 0, 0, 0, 2, 0, 10, 8, 3, 0, 0, 0, 0, 0, 0, 0, 10, 0, 7, 0, 0, 7 |];
suc = [ { 8, 9, 58 },
       { 36, 101 },
       { 4, 5, 6 },
       { 24, 30 },
       { 16, 23, 54 },
       { 7, 13, 14 },
       { 12, 27, 111 },
       { 17, 19, 80 },
       { 10, 11, 30 },
       { 15, 45, 55 },
       { 29, 85, 90 },
       { 20, 73, 77 },
       { 18, 45, 62 },
       { 35, 52, 70 },
       { 33, 53, 79 },
       { 29, 74 },
       { 22, 69, 99 },
       { 31, 40 },
       { 21, 101, 108 },
       { 67, 102 },
       { 25, 82, 89 },
       { 41 },
       { 50, 74, 105 },
       { 26, 42, 47 },
       { 28, 46, 75 },
       { 49, 53 },
       { 52 },
       { 34, 48 },
       { 72, 76 },
       { 32, 39, 40 },
       { 38, 84, 99 },
       { 43, 44, 65 },
       { 59, 68, 81 },
       { 35, 43, 103 },
       { 37, 45, 77 },
       { 70, 94 },
       { 41, 59, 64 },
       { 44, 60, 66 },
       { 44, 54, 62 },
       { 80, 96, 100 },
       { 57, 63, 76 },
       { 55, 83, 90 },
       { 59, 60 },
       { 73, 88 },
       { 65, 105 },
       { 68, 95 },
       { 88 },
       { 51, 64, 97 },
       { 61, 73, 83 },
       { 53, 99 },
       { 56, 57, 61 },
       { 66, 94, 116 },
       { 63, 71, 72 },
       { 69, 84, 110 },
       { 56, 79, 89 },
       { 65, 66, 112 },
       { 90, 91 },
       { 74, 92, 118 },
       { 61, 67 },
       { 63, 68, 79 },
       { 84, 115 },
       { 71, 75, 82 },
       { 67, 86 },
       { 85, 87 },
       { 78, 87, 88 },
       { 86, 104, 113 },
       { 83, 96, 98 },
       { 98 },
       { 75, 82, 107 },
       { 72, 76, 103 },
       { 77, 81, 107 },
       { 91, 97, 108 },
       { 80, 85, 87 },
       { 93 },
       { 78, 95, 105 },
       { 104 },
       { 78, 93 },
       { 91 },
       { 109 },
       { 89, 104, 120 },
       { 101 },
       { 94, 117 },
       { 97 },
       { 92, 112 },
       { 86, 100 },
       { 115 },
       { 92, 107 },
       { 96 },
       { 102 },
       { 95, 119 },
       { 109 },
       { 93 },
       { 100 },
       { 98, 102, 113 },
       { 111 },
       { 110 },
       { 109 },
       { 118 },
       { 108 },
       { 106 },
       { 106, 112 },
       { 103 },
       { 106 },
       { 110 },
       { 111, 116 },
       { 119 },
       { 113 },
       { 117 },
       { 116, 118 },
       { 114 },
       { 115 },
       { 114 },
       { 114 },
       { 119 },
       { 120 },
       { 117 },
       { 120 },
       {  },
       {  },
       {  } ];
